NAME : problems/40-tsp/instance-28.tsp
COMMENT : No Comment
TYPE : TSP
DIMENSION: 40
EDGE_WEIGHT_TYPE : EUC_2D
NODE_COORD_SECTION
1 8519 7491 
2 6570 9093 
3 8031 8203 
4 9482 6161 
5 3569 2026 
6 4583 3608 
7 8826 2020 
8 1594 7664 
9 3795 5729 
10 8098 7044 
11 1085 9349 
12 5289 3143 
13 7845 9225 
14 619 5226 
15 6270 1224 
16 8519 1540 
17 288 3216 
18 6242 3286 
19 6242 8057 
20 9247 8473 
21 4901 8763 
22 1888 769 
23 2883 1512 
24 6914 8941 
25 1984 5061 
26 3091 9251 
27 5003 5990 
28 6752 8987 
29 427 4913 
30 8319 1831 
31 530 7138 
32 6181 9355 
33 9638 9564 
34 1208 9659 
35 8721 3764 
36 6569 6268 
37 2588 4897 
38 1172 3078 
39 6569 4337 
40 1195 1906 
EOF
